p cnf 200 1110
-101 84 0
-101 -18 0
-101 6 0
-101 8 0
-101 86 0
-101 82 0
-101 53 0
-101 -46 0
-101 77 0
-101 -90 0
101 -84 18 -6 -8 -86 -82 -53 46 -77 90 0
-102 -82 0
-102 31 0
-102 79 0
-102 -89 0
-102 -83 0
-102 27 0
-102 6 0
-102 -9 0
-102 72 0
-102 -48 0
102 82 -31 -79 89 83 -27 -6 9 -72 48 0
-103 -48 0
-103 -69 0
-103 65 0
-103 66 0
-103 14 0
-103 74 0
-103 -52 0
-103 96 0
-103 -35 0
-103 20 0
103 48 69 -65 -66 -14 -74 52 -96 35 -20 0
-104 22 0
-104 -62 0
-104 -3 0
-104 -12 0
-104 -99 0
-104 -46 0
-104 74 0
-104 73 0
-104 52 0
-104 -29 0
104 -22 62 3 12 99 46 -74 -73 -52 29 0
-105 -85 0
-105 -72 0
-105 66 0
-105 49 0
-105 -97 0
-105 -33 0
-105 54 0
-105 -2 0
-105 -88 0
-105 -78 0
105 85 72 -66 -49 97 33 -54 2 88 78 0
-106 -69 0
-106 31 0
-106 89 0
-106 -53 0
-106 70 0
-106 60 0
-106 -17 0
-106 48 0
-106 -77 0
-106 -47 0
106 69 -31 -89 53 -70 -60 17 -48 77 47 0
-107 -14 0
-107 98 0
-107 47 0
-107 12 0
-107 -57 0
-107 4 0
-107 -5 0
-107 18 0
-107 -9 0
-107 87 0
107 14 -98 -47 -12 57 -4 5 -18 9 -87 0
-108 20 0
-108 -74 0
-108 83 0
-108 46 0
-108 -67 0
-108 21 0
-108 -94 0
-108 -69 0
-108 50 0
-108 43 0
108 -20 74 -83 -46 67 -21 94 69 -50 -43 0
-109 29 0
-109 -55 0
-109 -91 0
-109 -100 0
-109 -30 0
-109 53 0
-109 49 0
-109 11 0
-109 47 0
-109 -46 0
109 -29 55 91 100 30 -53 -49 -11 -47 46 0
-110 6 0
-110 99 0
-110 4 0
-110 44 0
-110 -42 0
-110 84 0
-110 -49 0
-110 -33 0
-110 87 0
-110 76 0
110 -6 -99 -4 -44 42 -84 49 33 -87 -76 0
101 102 103 104 105 106 107 108 109 110 0
-111 38 0
-111 -73 0
-111 62 0
-111 -64 0
-111 -93 0
-111 100 0
-111 82 0
-111 -31 0
-111 -95 0
-111 -88 0
111 -38 73 -62 64 93 -100 -82 31 95 88 0
-112 11 0
-112 96 0
-112 57 0
-112 59 0
-112 -92 0
-112 95 0
-112 -27 0
-112 -65 0
-112 88 0
-112 33 0
112 -11 -96 -57 -59 92 -95 27 65 -88 -33 0
-113 92 0
-113 -2 0
-113 -81 0
-113 38 0
-113 73 0
-113 -10 0
-113 -19 0
-113 -79 0
-113 -8 0
-113 31 0
113 -92 2 81 -38 -73 10 19 79 8 -31 0
-114 -76 0
-114 -62 0
-114 -82 0
-114 -83 0
-114 -94 0
-114 58 0
-114 -75 0
-114 -96 0
-114 -50 0
-114 -27 0
114 76 62 82 83 94 -58 75 96 50 27 0
-115 10 0
-115 -49 0
-115 20 0
-115 64 0
-115 -31 0
-115 56 0
-115 -50 0
-115 92 0
-115 -3 0
-115 -39 0
115 -10 49 -20 -64 31 -56 50 -92 3 39 0
-116 76 0
-116 -95 0
-116 -88 0
-116 -85 0
-116 -3 0
-116 -37 0
-116 -15 0
-116 -51 0
-116 -16 0
-116 -47 0
116 -76 95 88 85 3 37 15 51 16 47 0
-117 59 0
-117 57 0
-117 44 0
-117 70 0
-117 37 0
-117 4 0
-117 47 0
-117 17 0
-117 -75 0
-117 -56 0
117 -59 -57 -44 -70 -37 -4 -47 -17 75 56 0
-118 38 0
-118 -56 0
-118 -79 0
-118 5 0
-118 42 0
-118 89 0
-118 -27 0
-118 -60 0
-118 -96 0
-118 64 0
118 -38 56 79 -5 -42 -89 27 60 96 -64 0
-119 -100 0
-119 -8 0
-119 -25 0
-119 24 0
-119 37 0
-119 -42 0
-119 85 0
-119 21 0
-119 51 0
-119 -60 0
119 100 8 25 -24 -37 42 -85 -21 -51 60 0
-120 90 0
-120 97 0
-120 -8 0
-120 95 0
-120 100 0
-120 69 0
-120 62 0
-120 18 0
-120 -60 0
-120 -54 0
120 -90 -97 8 -95 -100 -69 -62 -18 60 54 0
111 112 113 114 115 116 117 118 119 120 0
-121 -93 0
-121 84 0
-121 34 0
-121 -88 0
-121 41 0
-121 98 0
-121 -77 0
-121 63 0
-121 -55 0
-121 20 0
121 93 -84 -34 88 -41 -98 77 -63 55 -20 0
-122 -83 0
-122 -19 0
-122 -9 0
-122 86 0
-122 11 0
-122 -20 0
-122 42 0
-122 -80 0
-122 95 0
-122 -89 0
122 83 19 9 -86 -11 20 -42 80 -95 89 0
-123 71 0
-123 72 0
-123 -30 0
-123 -33 0
-123 2 0
-123 -57 0
-123 -88 0
-123 75 0
-123 52 0
-123 47 0
123 -71 -72 30 33 -2 57 88 -75 -52 -47 0
-124 -78 0
-124 -88 0
-124 -64 0
-124 -95 0
-124 -48 0
-124 -17 0
-124 -24 0
-124 73 0
-124 -93 0
-124 -12 0
124 78 88 64 95 48 17 24 -73 93 12 0
-125 -64 0
-125 -21 0
-125 -58 0
-125 70 0
-125 88 0
-125 -20 0
-125 -36 0
-125 -47 0
-125 -12 0
-125 -63 0
125 64 21 58 -70 -88 20 36 47 12 63 0
-126 -97 0
-126 87 0
-126 47 0
-126 -92 0
-126 44 0
-126 76 0
-126 98 0
-126 -58 0
-126 -71 0
-126 -11 0
126 97 -87 -47 92 -44 -76 -98 58 71 11 0
-127 -32 0
-127 -87 0
-127 -98 0
-127 10 0
-127 82 0
-127 21 0
-127 99 0
-127 -8 0
-127 -97 0
-127 -55 0
127 32 87 98 -10 -82 -21 -99 8 97 55 0
-128 29 0
-128 38 0
-128 -88 0
-128 -10 0
-128 14 0
-128 -70 0
-128 81 0
-128 -67 0
-128 63 0
-128 80 0
128 -29 -38 88 10 -14 70 -81 67 -63 -80 0
-129 -73 0
-129 -49 0
-129 68 0
-129 15 0
-129 2 0
-129 1 0
-129 90 0
-129 -26 0
-129 -54 0
-129 -99 0
129 73 49 -68 -15 -2 -1 -90 26 54 99 0
-130 11 0
-130 80 0
-130 -23 0
-130 -51 0
-130 18 0
-130 74 0
-130 14 0
-130 -91 0
-130 66 0
-130 77 0
130 -11 -80 23 51 -18 -74 -14 91 -66 -77 0
121 122 123 124 125 126 127 128 129 130 0
-131 89 0
-131 26 0
-131 65 0
-131 -95 0
-131 -66 0
-131 55 0
-131 51 0
-131 37 0
-131 3 0
-131 -32 0
131 -89 -26 -65 95 66 -55 -51 -37 -3 32 0
-132 -30 0
-132 76 0
-132 12 0
-132 88 0
-132 -48 0
-132 6 0
-132 -60 0
-132 -11 0
-132 -7 0
-132 93 0
132 30 -76 -12 -88 48 -6 60 11 7 -93 0
-133 -55 0
-133 63 0
-133 -89 0
-133 -40 0
-133 -53 0
-133 7 0
-133 -84 0
-133 -11 0
-133 -54 0
-133 59 0
133 55 -63 89 40 53 -7 84 11 54 -59 0
-134 -66 0
-134 -81 0
-134 -86 0
-134 44 0
-134 -94 0
-134 33 0
-134 -64 0
-134 39 0
-134 -98 0
-134 -99 0
134 66 81 86 -44 94 -33 64 -39 98 99 0
-135 -41 0
-135 -27 0
-135 94 0
-135 -81 0
-135 87 0
-135 -77 0
-135 68 0
-135 57 0
-135 8 0
-135 17 0
135 41 27 -94 81 -87 77 -68 -57 -8 -17 0
-136 32 0
-136 -11 0
-136 94 0
-136 -12 0
-136 -18 0
-136 97 0
-136 -14 0
-136 -1 0
-136 53 0
-136 56 0
136 -32 11 -94 12 18 -97 14 1 -53 -56 0
-137 87 0
-137 -34 0
-137 -7 0
-137 -2 0
-137 -94 0
-137 62 0
-137 -95 0
-137 56 0
-137 53 0
-137 -46 0
137 -87 34 7 2 94 -62 95 -56 -53 46 0
-138 69 0
-138 82 0
-138 -25 0
-138 30 0
-138 -95 0
-138 36 0
-138 -14 0
-138 90 0
-138 -84 0
-138 -44 0
138 -69 -82 25 -30 95 -36 14 -90 84 44 0
-139 -7 0
-139 -47 0
-139 -61 0
-139 -27 0
-139 92 0
-139 32 0
-139 -80 0
-139 -79 0
-139 -94 0
-139 60 0
139 7 47 61 27 -92 -32 80 79 94 -60 0
-140 -1 0
-140 -52 0
-140 -91 0
-140 96 0
-140 -5 0
-140 81 0
-140 92 0
-140 51 0
-140 46 0
-140 -48 0
140 1 52 91 -96 5 -81 -92 -51 -46 48 0
131 132 133 134 135 136 137 138 139 140 0
-141 -85 0
-141 -61 0
-141 -64 0
-141 -14 0
-141 5 0
-141 49 0
-141 -39 0
-141 29 0
-141 99 0
-141 -35 0
141 85 61 64 14 -5 -49 39 -29 -99 35 0
-142 -32 0
-142 67 0
-142 -78 0
-142 -54 0
-142 -87 0
-142 4 0
-142 -26 0
-142 -85 0
-142 18 0
-142 66 0
142 32 -67 78 54 87 -4 26 85 -18 -66 0
-143 -7 0
-143 -85 0
-143 28 0
-143 13 0
-143 80 0
-143 9 0
-143 59 0
-143 -56 0
-143 -38 0
-143 60 0
143 7 85 -28 -13 -80 -9 -59 56 38 -60 0
-144 -72 0
-144 20 0
-144 93 0
-144 -34 0
-144 83 0
-144 18 0
-144 -87 0
-144 -1 0
-144 13 0
-144 -62 0
144 72 -20 -93 34 -83 -18 87 1 -13 62 0
-145 50 0
-145 51 0
-145 -76 0
-145 -24 0
-145 -92 0
-145 -98 0
-145 11 0
-145 99 0
-145 37 0
-145 -26 0
145 -50 -51 76 24 92 98 -11 -99 -37 26 0
-146 -48 0
-146 -62 0
-146 -78 0
-146 -71 0
-146 -8 0
-146 49 0
-146 -39 0
-146 -17 0
-146 -3 0
-146 -2 0
146 48 62 78 71 8 -49 39 17 3 2 0
-147 -30 0
-147 53 0
-147 58 0
-147 82 0
-147 52 0
-147 8 0
-147 78 0
-147 31 0
-147 -24 0
-147 84 0
147 30 -53 -58 -82 -52 -8 -78 -31 24 -84 0
-148 20 0
-148 -41 0
-148 19 0
-148 39 0
-148 -84 0
-148 -82 0
-148 44 0
-148 -1 0
-148 -88 0
-148 -60 0
148 -20 41 -19 -39 84 82 -44 1 88 60 0
-149 -84 0
-149 -19 0
-149 44 0
-149 72 0
-149 12 0
-149 8 0
-149 -53 0
-149 78 0
-149 11 0
-149 -5 0
149 84 19 -44 -72 -12 -8 53 -78 -11 5 0
-150 76 0
-150 9 0
-150 83 0
-150 6 0
-150 -69 0
-150 33 0
-150 -89 0
-150 -36 0
-150 18 0
-150 53 0
150 -76 -9 -83 -6 69 -33 89 36 -18 -53 0
141 142 143 144 145 146 147 148 149 150 0
-151 52 0
-151 -99 0
-151 43 0
-151 -62 0
-151 -50 0
-151 -30 0
-151 -93 0
-151 -1 0
-151 79 0
-151 95 0
151 -52 99 -43 62 50 30 93 1 -79 -95 0
-152 -32 0
-152 18 0
-152 27 0
-152 37 0
-152 82 0
-152 -2 0
-152 -11 0
-152 65 0
-152 49 0
-152 35 0
152 32 -18 -27 -37 -82 2 11 -65 -49 -35 0
-153 88 0
-153 -52 0
-153 30 0
-153 69 0
-153 -92 0
-153 -5 0
-153 49 0
-153 39 0
-153 6 0
-153 81 0
153 -88 52 -30 -69 92 5 -49 -39 -6 -81 0
-154 56 0
-154 -85 0
-154 99 0
-154 37 0
-154 27 0
-154 80 0
-154 65 0
-154 -96 0
-154 39 0
-154 43 0
154 -56 85 -99 -37 -27 -80 -65 96 -39 -43 0
-155 5 0
-155 -44 0
-155 -65 0
-155 42 0
-155 -86 0
-155 11 0
-155 1 0
-155 99 0
-155 49 0
-155 -43 0
155 -5 44 65 -42 86 -11 -1 -99 -49 43 0
-156 -30 0
-156 -78 0
-156 -29 0
-156 -8 0
-156 -62 0
-156 22 0
-156 77 0
-156 98 0
-156 47 0
-156 80 0
156 30 78 29 8 62 -22 -77 -98 -47 -80 0
-157 39 0
-157 65 0
-157 90 0
-157 -56 0
-157 61 0
-157 -99 0
-157 -36 0
-157 69 0
-157 -67 0
-157 82 0
157 -39 -65 -90 56 -61 99 36 -69 67 -82 0
-158 89 0
-158 -7 0
-158 46 0
-158 -80 0
-158 -59 0
-158 -76 0
-158 -68 0
-158 33 0
-158 -74 0
-158 73 0
158 -89 7 -46 80 59 76 68 -33 74 -73 0
-159 -78 0
-159 29 0
-159 59 0
-159 -32 0
-159 -56 0
-159 67 0
-159 58 0
-159 41 0
-159 33 0
-159 -38 0
159 78 -29 -59 32 56 -67 -58 -41 -33 38 0
-160 -74 0
-160 82 0
-160 -85 0
-160 -45 0
-160 -17 0
-160 49 0
-160 97 0
-160 44 0
-160 -30 0
-160 -23 0
160 74 -82 85 45 17 -49 -97 -44 30 23 0
151 152 153 154 155 156 157 158 159 160 0
-161 -39 0
-161 -99 0
-161 65 0
-161 -66 0
-161 95 0
-161 80 0
-161 -29 0
-161 -8 0
-161 -40 0
-161 -54 0
161 39 99 -65 66 -95 -80 29 8 40 54 0
-162 -62 0
-162 -52 0
-162 -36 0
-162 -49 0
-162 -20 0
-162 -29 0
-162 -5 0
-162 -78 0
-162 85 0
-162 51 0
162 62 52 36 49 20 29 5 78 -85 -51 0
-163 37 0
-163 88 0
-163 24 0
-163 -89 0
-163 14 0
-163 84 0
-163 -32 0
-163 66 0
-163 57 0
-163 -38 0
163 -37 -88 -24 89 -14 -84 32 -66 -57 38 0
-164 -79 0
-164 -83 0
-164 -4 0
-164 71 0
-164 -85 0
-164 -68 0
-164 -54 0
-164 -26 0
-164 -72 0
-164 -28 0
164 79 83 4 -71 85 68 54 26 72 28 0
-165 19 0
-165 -17 0
-165 47 0
-165 -87 0
-165 43 0
-165 -12 0
-165 -61 0
-165 75 0
-165 53 0
-165 -82 0
165 -19 17 -47 87 -43 12 61 -75 -53 82 0
-166 73 0
-166 26 0
-166 -10 0
-166 44 0
-166 -21 0
-166 28 0
-166 -5 0
-166 -7 0
-166 -20 0
-166 91 0
166 -73 -26 10 -44 21 -28 5 7 20 -91 0
-167 5 0
-167 66 0
-167 74 0
-167 -23 0
-167 60 0
-167 -63 0
-167 21 0
-167 -100 0
-167 -84 0
-167 -40 0
167 -5 -66 -74 23 -60 63 -21 100 84 40 0
-168 67 0
-168 65 0
-168 93 0
-168 -24 0
-168 56 0
-168 -60 0
-168 -100 0
-168 50 0
-168 -10 0
-168 23 0
168 -67 -65 -93 24 -56 60 100 -50 10 -23 0
-169 -44 0
-169 -14 0
-169 81 0
-169 -10 0
-169 -5 0
-169 -76 0
-169 86 0
-169 -40 0
-169 70 0
-169 -13 0
169 44 14 -81 10 5 76 -86 40 -70 13 0
-170 98 0
-170 -21 0
-170 84 0
-170 -26 0
-170 82 0
-170 -86 0
-170 78 0
-170 66 0
-170 -53 0
-170 -81 0
170 -98 21 -84 26 -82 86 -78 -66 53 81 0
161 162 163 164 165 166 167 168 169 170 0
-171 -67 0
-171 11 0
-171 33 0
-171 5 0
-171 -59 0
-171 44 0
-171 -87 0
-171 -84 0
-171 -92 0
-171 62 0
171 67 -11 -33 -5 59 -44 87 84 92 -62 0
-172 41 0
-172 32 0
-172 -96 0
-172 -7 0
-172 9 0
-172 6 0
-172 20 0
-172 -52 0
-172 -47 0
-172 -26 0
172 -41 -32 96 7 -9 -6 -20 52 47 26 0
-173 97 0
-173 17 0
-173 73 0
-173 92 0
-173 -87 0
-173 -75 0
-173 30 0
-173 28 0
-173 10 0
-173 85 0
173 -97 -17 -73 -92 87 75 -30 -28 -10 -85 0
-174 64 0
-174 83 0
-174 85 0
-174 -42 0
-174 -32 0
-174 59 0
-174 72 0
-174 63 0
-174 15 0
-174 -13 0
174 -64 -83 -85 42 32 -59 -72 -63 -15 13 0
-175 56 0
-175 47 0
-175 72 0
-175 89 0
-175 40 0
-175 -24 0
-175 58 0
-175 27 0
-175 7 0
-175 29 0
175 -56 -47 -72 -89 -40 24 -58 -27 -7 -29 0
-176 -72 0
-176 58 0
-176 -42 0
-176 -43 0
-176 -45 0
-176 49 0
-176 7 0
-176 -90 0
-176 -79 0
-176 -36 0
176 72 -58 42 43 45 -49 -7 90 79 36 0
-177 -9 0
-177 -67 0
-177 69 0
-177 38 0
-177 81 0
-177 -53 0
-177 91 0
-177 98 0
-177 -24 0
-177 13 0
177 9 67 -69 -38 -81 53 -91 -98 24 -13 0
-178 63 0
-178 95 0
-178 -42 0
-178 -71 0
-178 -83 0
-178 29 0
-178 -94 0
-178 45 0
-178 67 0
-178 55 0
178 -63 -95 42 71 83 -29 94 -45 -67 -55 0
-179 80 0
-179 5 0
-179 -82 0
-179 -96 0
-179 -1 0
-179 -93 0
-179 -29 0
-179 -84 0
-179 -27 0
-179 -16 0
179 -80 -5 82 96 1 93 29 84 27 16 0
-180 33 0
-180 43 0
-180 -87 0
-180 -91 0
-180 -15 0
-180 -38 0
-180 68 0
-180 7 0
-180 -71 0
-180 54 0
180 -33 -43 87 91 15 38 -68 -7 71 -54 0
171 172 173 174 175 176 177 178 179 180 0
-181 49 0
-181 -29 0
-181 -33 0
-181 -71 0
-181 -97 0
-181 -21 0
-181 -67 0
-181 -38 0
-181 -76 0
-181 -27 0
181 -49 29 33 71 97 21 67 38 76 27 0
-182 63 0
-182 -27 0
-182 22 0
-182 -90 0
-182 80 0
-182 -36 0
-182 -33 0
-182 -58 0
-182 71 0
-182 -34 0
182 -63 27 -22 90 -80 36 33 58 -71 34 0
-183 34 0
-183 -25 0
-183 -51 0
-183 7 0
-183 -97 0
-183 35 0
-183 -74 0
-183 36 0
-183 66 0
-183 79 0
183 -34 25 51 -7 97 -35 74 -36 -66 -79 0
-184 -6 0
-184 66 0
-184 -64 0
-184 10 0
-184 9 0
-184 91 0
-184 35 0
-184 69 0
-184 70 0
-184 -83 0
184 6 -66 64 -10 -9 -91 -35 -69 -70 83 0
-185 71 0
-185 -43 0
-185 77 0
-185 16 0
-185 76 0
-185 -26 0
-185 31 0
-185 -29 0
-185 -61 0
-185 -97 0
185 -71 43 -77 -16 -76 26 -31 29 61 97 0
-186 -64 0
-186 -40 0
-186 35 0
-186 -25 0
-186 -51 0
-186 -13 0
-186 45 0
-186 61 0
-186 -74 0
-186 32 0
186 64 40 -35 25 51 13 -45 -61 74 -32 0
-187 -44 0
-187 3 0
-187 9 0
-187 8 0
-187 53 0
-187 -59 0
-187 69 0
-187 63 0
-187 31 0
-187 33 0
187 44 -3 -9 -8 -53 59 -69 -63 -31 -33 0
-188 -42 0
-188 18 0
-188 68 0
-188 -16 0
-188 75 0
-188 -76 0
-188 -37 0
-188 -7 0
-188 54 0
-188 -71 0
188 42 -18 -68 16 -75 76 37 7 -54 71 0
-189 48 0
-189 -11 0
-189 91 0
-189 -60 0
-189 23 0
-189 -8 0
-189 43 0
-189 85 0
-189 64 0
-189 -16 0
189 -48 11 -91 60 -23 8 -43 -85 -64 16 0
-190 -47 0
-190 -98 0
-190 -8 0
-190 -88 0
-190 -84 0
-190 -38 0
-190 54 0
-190 -79 0
-190 78 0
-190 -58 0
190 47 98 8 88 84 38 -54 79 -78 58 0
181 182 183 184 185 186 187 188 189 190 0
-191 -99 0
-191 -69 0
-191 -23 0
-191 81 0
-191 -80 0
-191 37 0
-191 40 0
-191 -11 0
-191 -12 0
-191 -66 0
191 99 69 23 -81 80 -37 -40 11 12 66 0
-192 -21 0
-192 -82 0
-192 81 0
-192 -64 0
-192 -98 0
-192 77 0
-192 65 0
-192 -40 0
-192 -24 0
-192 -89 0
192 21 82 -81 64 98 -77 -65 40 24 89 0
-193 97 0
-193 50 0
-193 -52 0
-193 56 0
-193 16 0
-193 37 0
-193 -71 0
-193 34 0
-193 55 0
-193 84 0
193 -97 -50 52 -56 -16 -37 71 -34 -55 -84 0
-194 60 0
-194 -34 0
-194 48 0
-194 -53 0
-194 55 0
-194 59 0
-194 -37 0
-194 -74 0
-194 38 0
-194 72 0
194 -60 34 -48 53 -55 -59 37 74 -38 -72 0
-195 -77 0
-195 90 0
-195 -68 0
-195 34 0
-195 63 0
-195 -62 0
-195 43 0
-195 74 0
-195 -71 0
-195 46 0
195 77 -90 68 -34 -63 62 -43 -74 71 -46 0
-196 -23 0
-196 6 0
-196 38 0
-196 -87 0
-196 -14 0
-196 -18 0
-196 -10 0
-196 -52 0
-196 64 0
-196 -5 0
196 23 -6 -38 87 14 18 10 52 -64 5 0
-197 -4 0
-197 -14 0
-197 54 0
-197 67 0
-197 -64 0
-197 50 0
-197 -16 0
-197 -30 0
-197 74 0
-197 3 0
197 4 14 -54 -67 64 -50 16 30 -74 -3 0
-198 29 0
-198 -63 0
-198 -76 0
-198 54 0
-198 79 0
-198 -11 0
-198 32 0
-198 -16 0
-198 37 0
-198 -41 0
198 -29 63 76 -54 -79 11 -32 16 -37 41 0
-199 76 0
-199 52 0
-199 27 0
-199 -72 0
-199 53 0
-199 79 0
-199 66 0
-199 -78 0
-199 31 0
-199 -26 0
199 -76 -52 -27 72 -53 -79 -66 78 -31 26 0
-200 -18 0
-200 -89 0
-200 85 0
-200 40 0
-200 -61 0
-200 27 0
-200 -58 0
-200 57 0
-200 -94 0
-200 87 0
200 18 89 -85 -40 61 -27 58 -57 94 -87 0
191 192 193 194 195 196 197 198 199 200 0
